set Productos:= Naranjas,Pepinos,Melones,Sandias,Nueces,Zanahorias;

param Peso_max:= 10000;

param: P I:=
Naranjas 2500 450
Pepinos 1800 370
Melones 2100 280
Sandias 1850 320
Nueces 1650 410
Zanahorias 2100 500;

